files/upTests/__failed/nested-partial-function/0001.eprime
language ESSENCE' 1.0

find f_Function1DPartial_tuple1: matrix indexed by [int(1..9)] of bool
find f_Function1DPartial_tuple2: matrix indexed by [int(1..9)] of int(1..9)
such that
    {f_Function1DPartial_tuple2[1] @ such that f_Function1DPartial_tuple1[1]} = 7,
    (sum v__0 : int(1..9) . f_Function1DPartial_tuple1[v__0]) >= 1,
    forAll v__0 : int(1..3)
        . {f_Function1DPartial_tuple2[v__0] @ such that
                                                  f_Function1DPartial_tuple1[v__0]}
          =
          {f_Function1DPartial_tuple2[{f_Function1DPartial_tuple2[v__0] @ such that
                                                                              f_Function1DPartial_tuple1[v__0]}] @ such that
                                                                                                                       f_Function1DPartial_tuple1[{f_Function1DPartial_tuple2[v__0] @ such that
                                                                                                                                                                                          f_Function1DPartial_tuple1[v__0]}]},
    forAll v__0 : int(1..9)
        . !f_Function1DPartial_tuple1[v__0] -> f_Function1DPartial_tuple2[v__0] = 1
