files/upTests/__failed/nested-partial-function/0001.eprime.solution
language ESSENCE' 1.0
$ minion Nodes: 8
$ minion TotalTime: 0.002471
$ minion TimeOut: 0
$ Savile Row TotalTime: 0.282
letting f_Function1DPartial_tuple1 be [true, true, true, false, false, false, true, false, false;int(1..9)]
letting f_Function1DPartial_tuple2 be [7, 2, 2, 1, 1, 1, 7, 1, 1;int(1..9)]
